p edge 81 1728
e 1 2
e 1 3
e 1 5
e 1 7
e 1 9
e 1 10
e 1 11
e 1 12
e 1 13
e 1 14
e 1 15
e 1 16
e 1 21
e 1 22
e 1 24
e 1 25
e 1 27
e 1 29
e 1 31
e 1 32
e 1 35
e 1 36
e 1 39
e 1 41
e 1 45
e 1 46
e 1 47
e 1 49
e 1 50
e 1 51
e 1 53
e 1 54
e 1 55
e 1 57
e 1 58
e 1 59
e 1 64
e 1 66
e 1 70
e 1 77
e 1 78
e 1 79
e 2 3
e 2 5
e 2 8
e 2 11
e 2 13
e 2 14
e 2 16
e 2 17
e 2 18
e 2 20
e 2 21
e 2 23
e 2 25
e 2 26
e 2 27
e 2 29
e 2 32
e 2 33
e 2 34
e 2 35
e 2 36
e 2 37
e 2 38
e 2 42
e 2 44
e 2 46
e 2 48
e 2 49
e 2 50
e 2 52
e 2 53
e 2 55
e 2 56
e 2 58
e 2 59
e 2 60
e 2 64
e 2 65
e 2 66
e 2 67
e 2 70
e 2 77
e 2 78
e 2 79
e 2 80
e 3 6
e 3 9
e 3 11
e 3 12
e 3 15
e 3 18
e 3 20
e 3 21
e 3 22
e 3 25
e 3 26
e 3 27
e 3 29
e 3 30
e 3 32
e 3 34
e 3 35
e 3 37
e 3 39
e 3 40
e 3 44
e 3 45
e 3 46
e 3 47
e 3 49
e 3 50
e 3 52
e 3 53
e 3 56
e 3 58
e 3 59
e 3 61
e 3 62
e 3 65
e 3 74
e 3 77
e 3 78
e 3 80
e 4 7
e 4 8
e 4 11
e 4 12
e 4 13
e 4 14
e 4 19
e 4 20
e 4 21
e 4 22
e 4 23
e 4 24
e 4 26
e 4 28
e 4 30
e 4 32
e 4 34
e 4 36
e 4 40
e 4 44
e 4 45
e 4 47
e 4 49
e 4 53
e 4 54
e 4 55
e 4 56
e 4 58
e 4 60
e 4 62
e 4 64
e 4 67
e 4 70
e 4 71
e 4 73
e 4 75
e 4 80
e 5 9
e 5 10
e 5 11
e 5 12
e 5 13
e 5 22
e 5 23
e 5 24
e 5 29
e 5 30
e 5 31
e 5 32
e 5 33
e 5 34
e 5 35
e 5 38
e 5 39
e 5 40
e 5 43
e 5 47
e 5 52
e 5 53
e 5 58
e 5 59
e 5 65
e 5 67
e 5 68
e 5 69
e 5 73
e 5 74
e 5 76
e 5 78
e 5 79
e 6 7
e 6 11
e 6 14
e 6 15
e 6 16
e 6 17
e 6 18
e 6 19
e 6 22
e 6 24
e 6 26
e 6 27
e 6 29
e 6 30
e 6 31
e 6 32
e 6 33
e 6 36
e 6 37
e 6 39
e 6 40
e 6 42
e 6 43
e 6 44
e 6 45
e 6 48
e 6 50
e 6 51
e 6 52
e 6 53
e 6 55
e 6 56
e 6 57
e 6 58
e 6 61
e 6 62
e 6 65
e 6 66
e 6 70
e 6 72
e 6 74
e 6 75
e 6 76
e 6 77
e 6 80
e 7 11
e 7 12
e 7 14
e 7 15
e 7 17
e 7 18
e 7 20
e 7 22
e 7 23
e 7 26
e 7 27
e 7 30
e 7 33
e 7 35
e 7 38
e 7 39
e 7 40
e 7 42
e 7 43
e 7 44
e 7 46
e 7 47
e 7 50
e 7 51
e 7 52
e 7 54
e 7 55
e 7 56
e 7 58
e 7 60
e 7 63
e 7 64
e 7 67
e 7 69
e 7 71
e 7 72
e 7 73
e 7 74
e 7 77
e 7 79
e 7 80
e 7 81
e 8 13
e 8 16
e 8 17
e 8 20
e 8 21
e 8 23
e 8 25
e 8 27
e 8 28
e 8 30
e 8 33
e 8 34
e 8 35
e 8 38
e 8 43
e 8 44
e 8 49
e 8 50
e 8 52
e 8 54
e 8 55
e 8 58
e 8 59
e 8 60
e 8 61
e 8 63
e 8 64
e 8 68
e 8 69
e 8 70
e 8 72
e 8 75
e 8 77
e 8 78
e 8 79
e 8 81
e 9 10
e 9 11
e 9 12
e 9 13
e 9 14
e 9 15
e 9 16
e 9 17
e 9 18
e 9 26
e 9 27
e 9 29
e 9 30
e 9 31
e 9 33
e 9 39
e 9 40
e 9 45
e 9 46
e 9 48
e 9 50
e 9 51
e 9 53
e 9 54
e 9 59
e 9 60
e 9 61
e 9 64
e 9 66
e 9 69
e 9 70
e 9 71
e 9 72
e 9 81
e 10 11
e 10 12
e 10 13
e 10 14
e 10 15
e 10 17
e 10 18
e 10 20
e 10 21
e 10 23
e 10 25
e 10 27
e 10 28
e 10 30
e 10 31
e 10 32
e 10 34
e 10 37
e 10 41
e 10 42
e 10 46
e 10 49
e 10 51
e 10 52
e 10 55
e 10 56
e 10 57
e 10 58
e 10 59
e 10 61
e 10 63
e 10 65
e 10 66
e 10 67
e 10 69
e 10 70
e 10 71
e 10 72
e 10 73
e 10 74
e 10 77
e 10 79
e 10 80
e 10 81
e 11 14
e 11 15
e 11 17
e 11 18
e 11 20
e 11 21
e 11 26
e 11 27
e 11 29
e 11 32
e 11 34
e 11 40
e 11 41
e 11 42
e 11 44
e 11 45
e 11 46
e 11 47
e 11 49
e 11 52
e 11 53
e 11 54
e 11 55
e 11 61
e 11 64
e 11 65
e 11 66
e 11 68
e 11 70
e 11 71
e 11 73
e 11 75
e 11 77
e 11 78
e 11 79
e 11 81
e 12 14
e 12 16
e 12 17
e 12 18
e 12 21
e 12 24
e 12 25
e 12 26
e 12 27
e 12 29
e 12 32
e 12 34
e 12 35
e 12 36
e 12 37
e 12 38
e 12 40
e 12 41
e 12 42
e 12 43
e 12 44
e 12 45
e 12 48
e 12 50
e 12 52
e 12 53
e 12 54
e 12 56
e 12 57
e 12 59
e 12 60
e 12 62
e 12 63
e 12 64
e 12 65
e 12 66
e 12 67
e 12 68
e 12 71
e 12 79
e 12 80
e 12 81
e 13 15
e 13 16
e 13 18
e 13 22
e 13 24
e 13 26
e 13 27
e 13 28
e 13 30
e 13 32
e 13 34
e 13 38
e 13 39
e 13 42
e 13 44
e 13 45
e 13 46
e 13 47
e 13 48
e 13 51
e 13 54
e 13 55
e 13 56
e 13 57
e 13 58
e 13 59
e 13 60
e 13 61
e 13 63
e 13 64
e 13 65
e 13 66
e 13 67
e 13 68
e 13 72
e 13 74
e 13 76
e 13 78
e 13 80
e 14 16
e 14 22
e 14 23
e 14 24
e 14 26
e 14 28
e 14 30
e 14 31
e 14 33
e 14 34
e 14 38
e 14 39
e 14 40
e 14 41
e 14 44
e 14 45
e 14 46
e 14 47
e 14 49
e 14 50
e 14 51
e 14 53
e 14 54
e 14 55
e 14 56
e 14 60
e 14 61
e 14 66
e 14 67
e 14 69
e 14 70
e 14 72
e 14 73
e 14 75
e 14 77
e 14 79
e 14 81
e 15 16
e 15 17
e 15 18
e 15 19
e 15 20
e 15 22
e 15 23
e 15 24
e 15 25
e 15 27
e 15 29
e 15 33
e 15 34
e 15 35
e 15 36
e 15 41
e 15 42
e 15 44
e 15 46
e 15 49
e 15 52
e 15 53
e 15 54
e 15 56
e 15 58
e 15 60
e 15 64
e 15 65
e 15 66
e 15 68
e 15 69
e 15 70
e 15 71
e 15 72
e 15 73
e 15 75
e 15 76
e 15 77
e 15 78
e 15 80
e 16 17
e 16 18
e 16 19
e 16 21
e 16 23
e 16 24
e 16 25
e 16 27
e 16 28
e 16 29
e 16 30
e 16 36
e 16 38
e 16 40
e 16 41
e 16 43
e 16 44
e 16 47
e 16 49
e 16 50
e 16 51
e 16 53
e 16 54
e 16 57
e 16 58
e 16 59
e 16 65
e 16 73
e 16 74
e 16 76
e 16 78
e 16 80
e 16 81
e 17 19
e 17 20
e 17 22
e 17 25
e 17 26
e 17 27
e 17 28
e 17 29
e 17 30
e 17 31
e 17 32
e 17 34
e 17 35
e 17 40
e 17 42
e 17 43
e 17 44
e 17 45
e 17 46
e 17 48
e 17 51
e 17 52
e 17 53
e 17 54
e 17 55
e 17 58
e 17 60
e 17 63
e 17 64
e 17 67
e 17 68
e 17 69
e 17 71
e 17 72
e 17 73
e 17 74
e 17 76
e 17 77
e 17 79
e 17 80
e 17 81
e 18 19
e 18 20
e 18 21
e 18 22
e 18 23
e 18 25
e 18 26
e 18 31
e 18 32
e 18 34
e 18 35
e 18 41
e 18 42
e 18 44
e 18 45
e 18 46
e 18 47
e 18 48
e 18 51
e 18 52
e 18 53
e 18 54
e 18 55
e 18 56
e 18 57
e 18 60
e 18 62
e 18 63
e 18 64
e 18 68
e 18 69
e 18 73
e 18 74
e 18 75
e 18 76
e 18 77
e 18 78
e 18 79
e 19 22
e 19 23
e 19 25
e 19 27
e 19 29
e 19 32
e 19 33
e 19 34
e 19 35
e 19 38
e 19 39
e 19 40
e 19 41
e 19 42
e 19 43
e 19 45
e 19 46
e 19 47
e 19 48
e 19 49
e 19 50
e 19 51
e 19 52
e 19 54
e 19 59
e 19 63
e 19 64
e 19 68
e 19 69
e 19 71
e 19 73
e 19 74
e 19 77
e 19 79
e 19 80
e 19 81
e 20 22
e 20 23
e 20 27
e 20 29
e 20 32
e 20 33
e 20 34
e 20 35
e 20 36
e 20 37
e 20 40
e 20 41
e 20 42
e 20 43
e 20 44
e 20 46
e 20 48
e 20 49
e 20 50
e 20 51
e 20 52
e 20 53
e 20 54
e 20 55
e 20 56
e 20 57
e 20 58
e 20 59
e 20 60
e 20 61
e 20 62
e 20 63
e 20 64
e 20 65
e 20 68
e 20 69
e 20 71
e 20 72
e 20 74
e 20 78
e 21 22
e 21 23
e 21 24
e 21 26
e 21 28
e 21 31
e 21 35
e 21 36
e 21 37
e 21 40
e 21 44
e 21 45
e 21 48
e 21 50
e 21 52
e 21 55
e 21 58
e 21 59
e 21 64
e 21 65
e 21 66
e 21 67
e 21 69
e 21 74
e 21 76
e 21 77
e 21 78
e 21 80
e 21 81
e 22 23
e 22 27
e 22 29
e 22 33
e 22 34
e 22 37
e 22 39
e 22 42
e 22 44
e 22 45
e 22 46
e 22 47
e 22 48
e 22 49
e 22 52
e 22 53
e 22 55
e 22 57
e 22 61
e 22 62
e 22 70
e 22 71
e 22 73
e 22 75
e 22 80
e 22 81
e 23 25
e 23 26
e 23 27
e 23 28
e 23 30
e 23 33
e 23 37
e 23 38
e 23 39
e 23 44
e 23 50
e 23 51
e 23 52
e 23 53
e 23 55
e 23 57
e 23 58
e 23 61
e 23 62
e 23 65
e 23 66
e 23 67
e 23 68
e 23 69
e 23 71
e 23 74
e 23 75
e 23 76
e 23 78
e 23 80
e 23 81
e 24 28
e 24 29
e 24 30
e 24 34
e 24 40
e 24 43
e 24 44
e 24 46
e 24 47
e 24 51
e 24 53
e 24 57
e 24 60
e 24 64
e 24 66
e 24 67
e 24 69
e 24 70
e 24 71
e 24 76
e 24 78
e 24 79
e 24 81
e 25 27
e 25 33
e 25 35
e 25 36
e 25 37
e 25 39
e 25 40
e 25 42
e 25 44
e 25 48
e 25 49
e 25 51
e 25 53
e 25 55
e 25 56
e 25 57
e 25 58
e 25 59
e 25 60
e 25 63
e 25 65
e 25 66
e 25 69
e 25 70
e 25 79
e 26 27
e 26 30
e 26 32
e 26 35
e 26 37
e 26 42
e 26 44
e 26 46
e 26 48
e 26 50
e 26 52
e 26 53
e 26 54
e 26 55
e 26 58
e 26 59
e 26 60
e 26 61
e 26 62
e 26 65
e 26 67
e 26 69
e 26 70
e 26 72
e 26 73
e 26 75
e 26 78
e 26 80
e 26 81
e 27 30
e 27 31
e 27 32
e 27 34
e 27 38
e 27 39
e 27 42
e 27 45
e 27 47
e 27 54
e 27 55
e 27 58
e 27 61
e 27 64
e 27 65
e 27 66
e 27 70
e 27 71
e 27 74
e 27 75
e 27 77
e 27 78
e 27 80
e 28 29
e 28 30
e 28 32
e 28 33
e 28 35
e 28 36
e 28 37
e 28 39
e 28 42
e 28 44
e 28 46
e 28 49
e 28 50
e 28 53
e 28 54
e 28 55
e 28 57
e 28 60
e 28 61
e 28 62
e 28 64
e 28 65
e 28 66
e 28 69
e 28 73
e 28 74
e 28 76
e 28 80
e 29 30
e 29 32
e 29 35
e 29 37
e 29 38
e 29 42
e 29 44
e 29 45
e 29 46
e 29 47
e 29 48
e 29 49
e 29 50
e 29 54
e 29 55
e 29 56
e 29 57
e 29 58
e 29 60
e 29 63
e 29 65
e 29 67
e 29 68
e 29 69
e 29 70
e 29 72
e 29 73
e 29 74
e 29 78
e 29 80
e 29 81
e 30 31
e 30 32
e 30 33
e 30 34
e 30 36
e 30 38
e 30 39
e 30 43
e 30 45
e 30 46
e 30 47
e 30 48
e 30 49
e 30 50
e 30 51
e 30 52
e 30 53
e 30 54
e 30 56
e 30 58
e 30 59
e 30 61
e 30 62
e 30 63
e 30 64
e 30 65
e 30 69
e 30 70
e 30 72
e 30 74
e 30 79
e 30 81
e 31 32
e 31 33
e 31 34
e 31 36
e 31 38
e 31 39
e 31 40
e 31 42
e 31 44
e 31 46
e 31 47
e 31 48
e 31 49
e 31 50
e 31 51
e 31 52
e 31 54
e 31 55
e 31 59
e 31 60
e 31 61
e 31 63
e 31 68
e 31 71
e 31 74
e 31 76
e 31 78
e 31 79
e 31 80
e 31 81
e 32 36
e 32 39
e 32 41
e 32 42
e 32 43
e 32 44
e 32 46
e 32 48
e 32 49
e 32 50
e 32 51
e 32 54
e 32 55
e 32 57
e 32 60
e 32 62
e 32 64
e 32 66
e 32 67
e 32 70
e 32 71
e 32 72
e 32 78
e 32 79
e 32 80
e 33 35
e 33 36
e 33 37
e 33 39
e 33 41
e 33 45
e 33 46
e 33 47
e 33 49
e 33 51
e 33 52
e 33 53
e 33 55
e 33 56
e 33 57
e 33 58
e 33 61
e 33 62
e 33 66
e 33 67
e 33 72
e 33 75
e 33 76
e 33 77
e 33 80
e 34 35
e 34 36
e 34 39
e 34 41
e 34 42
e 34 45
e 34 48
e 34 51
e 34 54
e 34 56
e 34 58
e 34 59
e 34 60
e 34 62
e 34 66
e 34 67
e 34 68
e 34 71
e 34 74
e 34 75
e 34 76
e 34 77
e 34 78
e 35 36
e 35 37
e 35 39
e 35 41
e 35 42
e 35 43
e 35 44
e 35 45
e 35 48
e 35 50
e 35 51
e 35 53
e 35 57
e 35 58
e 35 60
e 35 61
e 35 63
e 35 65
e 35 66
e 35 68
e 35 69
e 35 70
e 35 71
e 35 72
e 35 75
e 35 78
e 36 38
e 36 39
e 36 41
e 36 42
e 36 43
e 36 45
e 36 46
e 36 47
e 36 48
e 36 50
e 36 51
e 36 53
e 36 54
e 36 56
e 36 62
e 36 63
e 36 65
e 36 67
e 36 68
e 36 70
e 36 73
e 36 74
e 36 77
e 36 80
e 36 81
e 37 38
e 37 39
e 37 41
e 37 42
e 37 44
e 37 45
e 37 48
e 37 49
e 37 50
e 37 53
e 37 55
e 37 59
e 37 60
e 37 61
e 37 62
e 37 63
e 37 65
e 37 66
e 37 67
e 37 72
e 37 74
e 37 76
e 37 77
e 37 79
e 37 81
e 38 39
e 38 47
e 38 48
e 38 49
e 38 50
e 38 54
e 38 57
e 38 58
e 38 61
e 38 64
e 38 65
e 38 66
e 38 69
e 38 71
e 38 72
e 38 73
e 38 75
e 38 76
e 38 78
e 38 79
e 38 80
e 38 81
e 39 40
e 39 42
e 39 43
e 39 45
e 39 48
e 39 49
e 39 50
e 39 52
e 39 53
e 39 54
e 39 55
e 39 56
e 39 57
e 39 58
e 39 59
e 39 61
e 39 62
e 39 63
e 39 66
e 39 67
e 39 68
e 39 69
e 39 70
e 39 72
e 39 73
e 39 77
e 39 78
e 39 80
e 39 81
e 40 43
e 40 45
e 40 46
e 40 48
e 40 50
e 40 52
e 40 53
e 40 54
e 40 56
e 40 57
e 40 58
e 40 59
e 40 60
e 40 63
e 40 64
e 40 65
e 40 66
e 40 67
e 40 68
e 40 69
e 40 72
e 40 73
e 40 74
e 40 77
e 40 78
e 40 80
e 40 81
e 41 42
e 41 43
e 41 44
e 41 48
e 41 51
e 41 52
e 41 55
e 41 56
e 41 57
e 41 61
e 41 62
e 41 65
e 41 66
e 41 67
e 41 71
e 41 72
e 41 73
e 41 74
e 41 79
e 42 44
e 42 45
e 42 47
e 42 48
e 42 50
e 42 52
e 42 56
e 42 58
e 42 59
e 42 61
e 42 62
e 42 63
e 42 65
e 42 66
e 42 68
e 42 71
e 42 73
e 42 78
e 42 80
e 42 81
e 43 44
e 43 45
e 43 46
e 43 47
e 43 48
e 43 51
e 43 53
e 43 56
e 43 57
e 43 58
e 43 59
e 43 60
e 43 61
e 43 62
e 43 64
e 43 67
e 43 71
e 43 75
e 43 77
e 44 45
e 44 46
e 44 47
e 44 49
e 44 53
e 44 56
e 44 57
e 44 58
e 44 61
e 44 66
e 44 67
e 44 68
e 44 69
e 44 70
e 44 75
e 44 76
e 44 78
e 44 80
e 44 81
e 45 47
e 45 49
e 45 53
e 45 55
e 45 57
e 45 59
e 45 61
e 45 62
e 45 63
e 45 64
e 45 65
e 45 67
e 45 68
e 45 70
e 45 72
e 45 77
e 45 78
e 45 80
e 46 50
e 46 52
e 46 53
e 46 55
e 46 56
e 46 57
e 46 59
e 46 60
e 46 63
e 46 64
e 46 65
e 46 66
e 46 67
e 46 68
e 46 69
e 46 71
e 46 73
e 46 81
e 47 50
e 47 51
e 47 52
e 47 56
e 47 57
e 47 61
e 47 65
e 47 68
e 47 71
e 47 73
e 47 74
e 47 76
e 47 77
e 47 78
e 47 79
e 47 80
e 48 49
e 48 50
e 48 51
e 48 53
e 48 54
e 48 55
e 48 58
e 48 60
e 48 61
e 48 63
e 48 64
e 48 67
e 48 70
e 48 74
e 48 76
e 48 79
e 49 50
e 49 51
e 49 52
e 49 54
e 49 56
e 49 59
e 49 60
e 49 62
e 49 64
e 49 71
e 49 72
e 49 73
e 49 74
e 49 77
e 49 79
e 49 81
e 50 51
e 50 57
e 50 60
e 50 62
e 50 66
e 50 67
e 50 68
e 50 69
e 50 70
e 50 71
e 50 72
e 50 73
e 50 74
e 50 75
e 50 76
e 50 78
e 50 79
e 50 80
e 50 81
e 51 53
e 51 55
e 51 59
e 51 62
e 51 63
e 51 67
e 51 71
e 51 72
e 51 74
e 51 75
e 51 76
e 51 77
e 51 78
e 51 79
e 51 80
e 51 81
e 52 54
e 52 56
e 52 57
e 52 59
e 52 60
e 52 62
e 52 66
e 52 67
e 52 68
e 52 71
e 52 72
e 52 74
e 52 78
e 52 81
e 53 55
e 53 60
e 53 61
e 53 64
e 53 67
e 53 68
e 53 69
e 53 74
e 53 75
e 53 76
e 53 78
e 53 81
e 54 55
e 54 56
e 54 60
e 54 62
e 54 64
e 54 70
e 54 74
e 54 75
e 54 78
e 54 79
e 55 60
e 55 61
e 55 63
e 55 64
e 55 67
e 55 72
e 55 73
e 55 77
e 55 80
e 56 60
e 56 61
e 56 62
e 56 63
e 56 65
e 56 68
e 56 69
e 56 73
e 56 74
e 56 75
e 56 77
e 56 78
e 56 79
e 56 80
e 56 81
e 57 61
e 57 62
e 57 63
e 57 64
e 57 65
e 57 67
e 57 71
e 57 72
e 57 73
e 57 76
e 57 77
e 57 78
e 57 79
e 57 80
e 57 81
e 58 60
e 58 61
e 58 62
e 58 65
e 58 66
e 58 67
e 58 69
e 58 71
e 58 73
e 58 74
e 58 75
e 58 78
e 58 79
e 58 81
e 59 60
e 59 62
e 59 63
e 59 64
e 59 65
e 59 66
e 59 68
e 59 69
e 59 71
e 59 73
e 59 74
e 59 77
e 59 79
e 59 80
e 59 81
e 60 62
e 60 63
e 60 64
e 60 65
e 60 67
e 60 69
e 60 70
e 60 71
e 60 72
e 60 75
e 60 77
e 60 78
e 60 79
e 60 80
e 60 81
e 61 62
e 61 63
e 61 64
e 61 67
e 61 69
e 61 72
e 61 76
e 61 79
e 62 65
e 62 67
e 62 69
e 62 73
e 62 75
e 62 78
e 62 80
e 63 64
e 63 67
e 63 69
e 63 70
e 63 71
e 63 73
e 63 75
e 63 77
e 63 81
e 64 66
e 64 68
e 64 70
e 64 71
e 64 72
e 64 73
e 64 74
e 64 76
e 64 77
e 64 79
e 64 80
e 64 81
e 65 67
e 65 69
e 65 71
e 65 72
e 65 73
e 65 74
e 65 75
e 65 79
e 66 70
e 66 76
e 66 80
e 66 81
e 67 68
e 67 71
e 67 75
e 67 78
e 67 81
e 68 70
e 68 72
e 68 73
e 68 74
e 68 75
e 68 79
e 68 80
e 69 73
e 69 75
e 69 80
e 69 81
e 70 71
e 70 73
e 70 74
e 70 75
e 70 76
e 70 78
e 70 79
e 70 80
e 70 81
e 71 73
e 71 75
e 71 76
e 71 78
e 71 80
e 71 81
e 72 73
e 72 74
e 72 75
e 72 76
e 72 78
e 72 79
e 72 81
e 73 75
e 73 78
e 73 80
e 74 77
e 74 80
e 74 81
e 75 80
e 76 78
e 76 79
e 77 79
e 77 80
e 78 80
e 78 81
e 79 80
e 79 81
